10 45
1 2 7
1 3 6
1 4 7
1 5 8
1 6 8
1 7 19
1 8 16
1 9 23
1 10 27
2 3 16
2 4 7
2 5 7
2 6 13
2 7 17
2 8 23
2 9 18
2 10 26
3 4 18
3 5 11
3 6 1
3 7 23
3 8 27
3 9 20
3 10 8
4 5 9
4 6 18
4 7 9
4 8 1
4 9 21
4 10 16
5 6 9
5 7 28
5 8 2
5 9 0
5 10 2
6 7 14
6 8 17
6 9 4
6 10 3
7 8 20
7 9 5
7 10 9
8 9 25
8 10 6
9 10 22
